certificates/rado_a14_c6_N143.cnf
c Rad2 upper bound instance: x1 + 14*x2 - x3 = 6, interval [1,143]
p cnf 143 1440
1 9 0
-1 -9 0
1 2 23 0
-1 -2 -23 0
1 3 37 0
-1 -3 -37 0
1 4 51 0
-1 -4 -51 0
1 5 65 0
-1 -5 -65 0
1 6 79 0
-1 -6 -79 0
1 7 93 0
-1 -7 -93 0
1 8 107 0
-1 -8 -107 0
1 9 121 0
-1 -9 -121 0
1 10 135 0
-1 -10 -135 0
1 2 10 0
-1 -2 -10 0
2 24 0
-2 -24 0
2 3 38 0
-2 -3 -38 0
2 4 52 0
-2 -4 -52 0
2 5 66 0
-2 -5 -66 0
2 6 80 0
-2 -6 -80 0
2 7 94 0
-2 -7 -94 0
2 8 108 0
-2 -8 -108 0
2 9 122 0
-2 -9 -122 0
2 10 136 0
-2 -10 -136 0
1 3 11 0
-1 -3 -11 0
2 3 25 0
-2 -3 -25 0
3 39 0
-3 -39 0
3 4 53 0
-3 -4 -53 0
3 5 67 0
-3 -5 -67 0
3 6 81 0
-3 -6 -81 0
3 7 95 0
-3 -7 -95 0
3 8 109 0
-3 -8 -109 0
3 9 123 0
-3 -9 -123 0
3 10 137 0
-3 -10 -137 0
1 4 12 0
-1 -4 -12 0
2 4 26 0
-2 -4 -26 0
3 4 40 0
-3 -4 -40 0
4 54 0
-4 -54 0
4 5 68 0
-4 -5 -68 0
4 6 82 0
-4 -6 -82 0
4 7 96 0
-4 -7 -96 0
4 8 110 0
-4 -8 -110 0
4 9 124 0
-4 -9 -124 0
4 10 138 0
-4 -10 -138 0
1 5 13 0
-1 -5 -13 0
2 5 27 0
-2 -5 -27 0
3 5 41 0
-3 -5 -41 0
4 5 55 0
-4 -5 -55 0
5 69 0
-5 -69 0
5 6 83 0
-5 -6 -83 0
5 7 97 0
-5 -7 -97 0
5 8 111 0
-5 -8 -111 0
5 9 125 0
-5 -9 -125 0
5 10 139 0
-5 -10 -139 0
1 6 14 0
-1 -6 -14 0
2 6 28 0
-2 -6 -28 0
3 6 42 0
-3 -6 -42 0
4 6 56 0
-4 -6 -56 0
5 6 70 0
-5 -6 -70 0
6 84 0
-6 -84 0
6 7 98 0
-6 -7 -98 0
6 8 112 0
-6 -8 -112 0
6 9 126 0
-6 -9 -126 0
6 10 140 0
-6 -10 -140 0
1 7 15 0
-1 -7 -15 0
2 7 29 0
-2 -7 -29 0
3 7 43 0
-3 -7 -43 0
4 7 57 0
-4 -7 -57 0
5 7 71 0
-5 -7 -71 0
6 7 85 0
-6 -7 -85 0
7 99 0
-7 -99 0
7 8 113 0
-7 -8 -113 0
7 9 127 0
-7 -9 -127 0
7 10 141 0
-7 -10 -141 0
1 8 16 0
-1 -8 -16 0
2 8 30 0
-2 -8 -30 0
3 8 44 0
-3 -8 -44 0
4 8 58 0
-4 -8 -58 0
5 8 72 0
-5 -8 -72 0
6 8 86 0
-6 -8 -86 0
7 8 100 0
-7 -8 -100 0
8 114 0
-8 -114 0
8 9 128 0
-8 -9 -128 0
8 10 142 0
-8 -10 -142 0
1 9 17 0
-1 -9 -17 0
2 9 31 0
-2 -9 -31 0
3 9 45 0
-3 -9 -45 0
4 9 59 0
-4 -9 -59 0
5 9 73 0
-5 -9 -73 0
6 9 87 0
-6 -9 -87 0
7 9 101 0
-7 -9 -101 0
8 9 115 0
-8 -9 -115 0
9 129 0
-9 -129 0
9 10 143 0
-9 -10 -143 0
1 10 18 0
-1 -10 -18 0
2 10 32 0
-2 -10 -32 0
3 10 46 0
-3 -10 -46 0
4 10 60 0
-4 -10 -60 0
5 10 74 0
-5 -10 -74 0
6 10 88 0
-6 -10 -88 0
7 10 102 0
-7 -10 -102 0
8 10 116 0
-8 -10 -116 0
9 10 130 0
-9 -10 -130 0
1 11 19 0
-1 -11 -19 0
2 11 33 0
-2 -11 -33 0
3 11 47 0
-3 -11 -47 0
4 11 61 0
-4 -11 -61 0
5 11 75 0
-5 -11 -75 0
6 11 89 0
-6 -11 -89 0
7 11 103 0
-7 -11 -103 0
8 11 117 0
-8 -11 -117 0
9 11 131 0
-9 -11 -131 0
1 12 20 0
-1 -12 -20 0
2 12 34 0
-2 -12 -34 0
3 12 48 0
-3 -12 -48 0
4 12 62 0
-4 -12 -62 0
5 12 76 0
-5 -12 -76 0
6 12 90 0
-6 -12 -90 0
7 12 104 0
-7 -12 -104 0
8 12 118 0
-8 -12 -118 0
9 12 132 0
-9 -12 -132 0
1 13 21 0
-1 -13 -21 0
2 13 35 0
-2 -13 -35 0
3 13 49 0
-3 -13 -49 0
4 13 63 0
-4 -13 -63 0
5 13 77 0
-5 -13 -77 0
6 13 91 0
-6 -13 -91 0
7 13 105 0
-7 -13 -105 0
8 13 119 0
-8 -13 -119 0
9 13 133 0
-9 -13 -133 0
1 14 22 0
-1 -14 -22 0
2 14 36 0
-2 -14 -36 0
3 14 50 0
-3 -14 -50 0
4 14 64 0
-4 -14 -64 0
5 14 78 0
-5 -14 -78 0
6 14 92 0
-6 -14 -92 0
7 14 106 0
-7 -14 -106 0
8 14 120 0
-8 -14 -120 0
9 14 134 0
-9 -14 -134 0
1 15 23 0
-1 -15 -23 0
2 15 37 0
-2 -15 -37 0
3 15 51 0
-3 -15 -51 0
4 15 65 0
-4 -15 -65 0
5 15 79 0
-5 -15 -79 0
6 15 93 0
-6 -15 -93 0
7 15 107 0
-7 -15 -107 0
8 15 121 0
-8 -15 -121 0
9 15 135 0
-9 -15 -135 0
1 16 24 0
-1 -16 -24 0
2 16 38 0
-2 -16 -38 0
3 16 52 0
-3 -16 -52 0
4 16 66 0
-4 -16 -66 0
5 16 80 0
-5 -16 -80 0
6 16 94 0
-6 -16 -94 0
7 16 108 0
-7 -16 -108 0
8 16 122 0
-8 -16 -122 0
9 16 136 0
-9 -16 -136 0
1 17 25 0
-1 -17 -25 0
2 17 39 0
-2 -17 -39 0
3 17 53 0
-3 -17 -53 0
4 17 67 0
-4 -17 -67 0
5 17 81 0
-5 -17 -81 0
6 17 95 0
-6 -17 -95 0
7 17 109 0
-7 -17 -109 0
8 17 123 0
-8 -17 -123 0
9 17 137 0
-9 -17 -137 0
1 18 26 0
-1 -18 -26 0
2 18 40 0
-2 -18 -40 0
3 18 54 0
-3 -18 -54 0
4 18 68 0
-4 -18 -68 0
5 18 82 0
-5 -18 -82 0
6 18 96 0
-6 -18 -96 0
7 18 110 0
-7 -18 -110 0
8 18 124 0
-8 -18 -124 0
9 18 138 0
-9 -18 -138 0
1 19 27 0
-1 -19 -27 0
2 19 41 0
-2 -19 -41 0
3 19 55 0
-3 -19 -55 0
4 19 69 0
-4 -19 -69 0
5 19 83 0
-5 -19 -83 0
6 19 97 0
-6 -19 -97 0
7 19 111 0
-7 -19 -111 0
8 19 125 0
-8 -19 -125 0
9 19 139 0
-9 -19 -139 0
1 20 28 0
-1 -20 -28 0
2 20 42 0
-2 -20 -42 0
3 20 56 0
-3 -20 -56 0
4 20 70 0
-4 -20 -70 0
5 20 84 0
-5 -20 -84 0
6 20 98 0
-6 -20 -98 0
7 20 112 0
-7 -20 -112 0
8 20 126 0
-8 -20 -126 0
9 20 140 0
-9 -20 -140 0
1 21 29 0
-1 -21 -29 0
2 21 43 0
-2 -21 -43 0
3 21 57 0
-3 -21 -57 0
4 21 71 0
-4 -21 -71 0
5 21 85 0
-5 -21 -85 0
6 21 99 0
-6 -21 -99 0
7 21 113 0
-7 -21 -113 0
8 21 127 0
-8 -21 -127 0
9 21 141 0
-9 -21 -141 0
1 22 30 0
-1 -22 -30 0
2 22 44 0
-2 -22 -44 0
3 22 58 0
-3 -22 -58 0
4 22 72 0
-4 -22 -72 0
5 22 86 0
-5 -22 -86 0
6 22 100 0
-6 -22 -100 0
7 22 114 0
-7 -22 -114 0
8 22 128 0
-8 -22 -128 0
9 22 142 0
-9 -22 -142 0
1 23 31 0
-1 -23 -31 0
2 23 45 0
-2 -23 -45 0
3 23 59 0
-3 -23 -59 0
4 23 73 0
-4 -23 -73 0
5 23 87 0
-5 -23 -87 0
6 23 101 0
-6 -23 -101 0
7 23 115 0
-7 -23 -115 0
8 23 129 0
-8 -23 -129 0
9 23 143 0
-9 -23 -143 0
1 24 32 0
-1 -24 -32 0
2 24 46 0
-2 -24 -46 0
3 24 60 0
-3 -24 -60 0
4 24 74 0
-4 -24 -74 0
5 24 88 0
-5 -24 -88 0
6 24 102 0
-6 -24 -102 0
7 24 116 0
-7 -24 -116 0
8 24 130 0
-8 -24 -130 0
1 25 33 0
-1 -25 -33 0
2 25 47 0
-2 -25 -47 0
3 25 61 0
-3 -25 -61 0
4 25 75 0
-4 -25 -75 0
5 25 89 0
-5 -25 -89 0
6 25 103 0
-6 -25 -103 0
7 25 117 0
-7 -25 -117 0
8 25 131 0
-8 -25 -131 0
1 26 34 0
-1 -26 -34 0
2 26 48 0
-2 -26 -48 0
3 26 62 0
-3 -26 -62 0
4 26 76 0
-4 -26 -76 0
5 26 90 0
-5 -26 -90 0
6 26 104 0
-6 -26 -104 0
7 26 118 0
-7 -26 -118 0
8 26 132 0
-8 -26 -132 0
1 27 35 0
-1 -27 -35 0
2 27 49 0
-2 -27 -49 0
3 27 63 0
-3 -27 -63 0
4 27 77 0
-4 -27 -77 0
5 27 91 0
-5 -27 -91 0
6 27 105 0
-6 -27 -105 0
7 27 119 0
-7 -27 -119 0
8 27 133 0
-8 -27 -133 0
1 28 36 0
-1 -28 -36 0
2 28 50 0
-2 -28 -50 0
3 28 64 0
-3 -28 -64 0
4 28 78 0
-4 -28 -78 0
5 28 92 0
-5 -28 -92 0
6 28 106 0
-6 -28 -106 0
7 28 120 0
-7 -28 -120 0
8 28 134 0
-8 -28 -134 0
1 29 37 0
-1 -29 -37 0
2 29 51 0
-2 -29 -51 0
3 29 65 0
-3 -29 -65 0
4 29 79 0
-4 -29 -79 0
5 29 93 0
-5 -29 -93 0
6 29 107 0
-6 -29 -107 0
7 29 121 0
-7 -29 -121 0
8 29 135 0
-8 -29 -135 0
1 30 38 0
-1 -30 -38 0
2 30 52 0
-2 -30 -52 0
3 30 66 0
-3 -30 -66 0
4 30 80 0
-4 -30 -80 0
5 30 94 0
-5 -30 -94 0
6 30 108 0
-6 -30 -108 0
7 30 122 0
-7 -30 -122 0
8 30 136 0
-8 -30 -136 0
1 31 39 0
-1 -31 -39 0
2 31 53 0
-2 -31 -53 0
3 31 67 0
-3 -31 -67 0
4 31 81 0
-4 -31 -81 0
5 31 95 0
-5 -31 -95 0
6 31 109 0
-6 -31 -109 0
7 31 123 0
-7 -31 -123 0
8 31 137 0
-8 -31 -137 0
1 32 40 0
-1 -32 -40 0
2 32 54 0
-2 -32 -54 0
3 32 68 0
-3 -32 -68 0
4 32 82 0
-4 -32 -82 0
5 32 96 0
-5 -32 -96 0
6 32 110 0
-6 -32 -110 0
7 32 124 0
-7 -32 -124 0
8 32 138 0
-8 -32 -138 0
1 33 41 0
-1 -33 -41 0
2 33 55 0
-2 -33 -55 0
3 33 69 0
-3 -33 -69 0
4 33 83 0
-4 -33 -83 0
5 33 97 0
-5 -33 -97 0
6 33 111 0
-6 -33 -111 0
7 33 125 0
-7 -33 -125 0
8 33 139 0
-8 -33 -139 0
1 34 42 0
-1 -34 -42 0
2 34 56 0
-2 -34 -56 0
3 34 70 0
-3 -34 -70 0
4 34 84 0
-4 -34 -84 0
5 34 98 0
-5 -34 -98 0
6 34 112 0
-6 -34 -112 0
7 34 126 0
-7 -34 -126 0
8 34 140 0
-8 -34 -140 0
1 35 43 0
-1 -35 -43 0
2 35 57 0
-2 -35 -57 0
3 35 71 0
-3 -35 -71 0
4 35 85 0
-4 -35 -85 0
5 35 99 0
-5 -35 -99 0
6 35 113 0
-6 -35 -113 0
7 35 127 0
-7 -35 -127 0
8 35 141 0
-8 -35 -141 0
1 36 44 0
-1 -36 -44 0
2 36 58 0
-2 -36 -58 0
3 36 72 0
-3 -36 -72 0
4 36 86 0
-4 -36 -86 0
5 36 100 0
-5 -36 -100 0
6 36 114 0
-6 -36 -114 0
7 36 128 0
-7 -36 -128 0
8 36 142 0
-8 -36 -142 0
1 37 45 0
-1 -37 -45 0
2 37 59 0
-2 -37 -59 0
3 37 73 0
-3 -37 -73 0
4 37 87 0
-4 -37 -87 0
5 37 101 0
-5 -37 -101 0
6 37 115 0
-6 -37 -115 0
7 37 129 0
-7 -37 -129 0
8 37 143 0
-8 -37 -143 0
1 38 46 0
-1 -38 -46 0
2 38 60 0
-2 -38 -60 0
3 38 74 0
-3 -38 -74 0
4 38 88 0
-4 -38 -88 0
5 38 102 0
-5 -38 -102 0
6 38 116 0
-6 -38 -116 0
7 38 130 0
-7 -38 -130 0
1 39 47 0
-1 -39 -47 0
2 39 61 0
-2 -39 -61 0
3 39 75 0
-3 -39 -75 0
4 39 89 0
-4 -39 -89 0
5 39 103 0
-5 -39 -103 0
6 39 117 0
-6 -39 -117 0
7 39 131 0
-7 -39 -131 0
1 40 48 0
-1 -40 -48 0
2 40 62 0
-2 -40 -62 0
3 40 76 0
-3 -40 -76 0
4 40 90 0
-4 -40 -90 0
5 40 104 0
-5 -40 -104 0
6 40 118 0
-6 -40 -118 0
7 40 132 0
-7 -40 -132 0
1 41 49 0
-1 -41 -49 0
2 41 63 0
-2 -41 -63 0
3 41 77 0
-3 -41 -77 0
4 41 91 0
-4 -41 -91 0
5 41 105 0
-5 -41 -105 0
6 41 119 0
-6 -41 -119 0
7 41 133 0
-7 -41 -133 0
1 42 50 0
-1 -42 -50 0
2 42 64 0
-2 -42 -64 0
3 42 78 0
-3 -42 -78 0
4 42 92 0
-4 -42 -92 0
5 42 106 0
-5 -42 -106 0
6 42 120 0
-6 -42 -120 0
7 42 134 0
-7 -42 -134 0
1 43 51 0
-1 -43 -51 0
2 43 65 0
-2 -43 -65 0
3 43 79 0
-3 -43 -79 0
4 43 93 0
-4 -43 -93 0
5 43 107 0
-5 -43 -107 0
6 43 121 0
-6 -43 -121 0
7 43 135 0
-7 -43 -135 0
1 44 52 0
-1 -44 -52 0
2 44 66 0
-2 -44 -66 0
3 44 80 0
-3 -44 -80 0
4 44 94 0
-4 -44 -94 0
5 44 108 0
-5 -44 -108 0
6 44 122 0
-6 -44 -122 0
7 44 136 0
-7 -44 -136 0
1 45 53 0
-1 -45 -53 0
2 45 67 0
-2 -45 -67 0
3 45 81 0
-3 -45 -81 0
4 45 95 0
-4 -45 -95 0
5 45 109 0
-5 -45 -109 0
6 45 123 0
-6 -45 -123 0
7 45 137 0
-7 -45 -137 0
1 46 54 0
-1 -46 -54 0
2 46 68 0
-2 -46 -68 0
3 46 82 0
-3 -46 -82 0
4 46 96 0
-4 -46 -96 0
5 46 110 0
-5 -46 -110 0
6 46 124 0
-6 -46 -124 0
7 46 138 0
-7 -46 -138 0
1 47 55 0
-1 -47 -55 0
2 47 69 0
-2 -47 -69 0
3 47 83 0
-3 -47 -83 0
4 47 97 0
-4 -47 -97 0
5 47 111 0
-5 -47 -111 0
6 47 125 0
-6 -47 -125 0
7 47 139 0
-7 -47 -139 0
1 48 56 0
-1 -48 -56 0
2 48 70 0
-2 -48 -70 0
3 48 84 0
-3 -48 -84 0
4 48 98 0
-4 -48 -98 0
5 48 112 0
-5 -48 -112 0
6 48 126 0
-6 -48 -126 0
7 48 140 0
-7 -48 -140 0
1 49 57 0
-1 -49 -57 0
2 49 71 0
-2 -49 -71 0
3 49 85 0
-3 -49 -85 0
4 49 99 0
-4 -49 -99 0
5 49 113 0
-5 -49 -113 0
6 49 127 0
-6 -49 -127 0
7 49 141 0
-7 -49 -141 0
1 50 58 0
-1 -50 -58 0
2 50 72 0
-2 -50 -72 0
3 50 86 0
-3 -50 -86 0
4 50 100 0
-4 -50 -100 0
5 50 114 0
-5 -50 -114 0
6 50 128 0
-6 -50 -128 0
7 50 142 0
-7 -50 -142 0
1 51 59 0
-1 -51 -59 0
2 51 73 0
-2 -51 -73 0
3 51 87 0
-3 -51 -87 0
4 51 101 0
-4 -51 -101 0
5 51 115 0
-5 -51 -115 0
6 51 129 0
-6 -51 -129 0
7 51 143 0
-7 -51 -143 0
1 52 60 0
-1 -52 -60 0
2 52 74 0
-2 -52 -74 0
3 52 88 0
-3 -52 -88 0
4 52 102 0
-4 -52 -102 0
5 52 116 0
-5 -52 -116 0
6 52 130 0
-6 -52 -130 0
1 53 61 0
-1 -53 -61 0
2 53 75 0
-2 -53 -75 0
3 53 89 0
-3 -53 -89 0
4 53 103 0
-4 -53 -103 0
5 53 117 0
-5 -53 -117 0
6 53 131 0
-6 -53 -131 0
1 54 62 0
-1 -54 -62 0
2 54 76 0
-2 -54 -76 0
3 54 90 0
-3 -54 -90 0
4 54 104 0
-4 -54 -104 0
5 54 118 0
-5 -54 -118 0
6 54 132 0
-6 -54 -132 0
1 55 63 0
-1 -55 -63 0
2 55 77 0
-2 -55 -77 0
3 55 91 0
-3 -55 -91 0
4 55 105 0
-4 -55 -105 0
5 55 119 0
-5 -55 -119 0
6 55 133 0
-6 -55 -133 0
1 56 64 0
-1 -56 -64 0
2 56 78 0
-2 -56 -78 0
3 56 92 0
-3 -56 -92 0
4 56 106 0
-4 -56 -106 0
5 56 120 0
-5 -56 -120 0
6 56 134 0
-6 -56 -134 0
1 57 65 0
-1 -57 -65 0
2 57 79 0
-2 -57 -79 0
3 57 93 0
-3 -57 -93 0
4 57 107 0
-4 -57 -107 0
5 57 121 0
-5 -57 -121 0
6 57 135 0
-6 -57 -135 0
1 58 66 0
-1 -58 -66 0
2 58 80 0
-2 -58 -80 0
3 58 94 0
-3 -58 -94 0
4 58 108 0
-4 -58 -108 0
5 58 122 0
-5 -58 -122 0
6 58 136 0
-6 -58 -136 0
1 59 67 0
-1 -59 -67 0
2 59 81 0
-2 -59 -81 0
3 59 95 0
-3 -59 -95 0
4 59 109 0
-4 -59 -109 0
5 59 123 0
-5 -59 -123 0
6 59 137 0
-6 -59 -137 0
1 60 68 0
-1 -60 -68 0
2 60 82 0
-2 -60 -82 0
3 60 96 0
-3 -60 -96 0
4 60 110 0
-4 -60 -110 0
5 60 124 0
-5 -60 -124 0
6 60 138 0
-6 -60 -138 0
1 61 69 0
-1 -61 -69 0
2 61 83 0
-2 -61 -83 0
3 61 97 0
-3 -61 -97 0
4 61 111 0
-4 -61 -111 0
5 61 125 0
-5 -61 -125 0
6 61 139 0
-6 -61 -139 0
1 62 70 0
-1 -62 -70 0
2 62 84 0
-2 -62 -84 0
3 62 98 0
-3 -62 -98 0
4 62 112 0
-4 -62 -112 0
5 62 126 0
-5 -62 -126 0
6 62 140 0
-6 -62 -140 0
1 63 71 0
-1 -63 -71 0
2 63 85 0
-2 -63 -85 0
3 63 99 0
-3 -63 -99 0
4 63 113 0
-4 -63 -113 0
5 63 127 0
-5 -63 -127 0
6 63 141 0
-6 -63 -141 0
1 64 72 0
-1 -64 -72 0
2 64 86 0
-2 -64 -86 0
3 64 100 0
-3 -64 -100 0
4 64 114 0
-4 -64 -114 0
5 64 128 0
-5 -64 -128 0
6 64 142 0
-6 -64 -142 0
1 65 73 0
-1 -65 -73 0
2 65 87 0
-2 -65 -87 0
3 65 101 0
-3 -65 -101 0
4 65 115 0
-4 -65 -115 0
5 65 129 0
-5 -65 -129 0
6 65 143 0
-6 -65 -143 0
1 66 74 0
-1 -66 -74 0
2 66 88 0
-2 -66 -88 0
3 66 102 0
-3 -66 -102 0
4 66 116 0
-4 -66 -116 0
5 66 130 0
-5 -66 -130 0
1 67 75 0
-1 -67 -75 0
2 67 89 0
-2 -67 -89 0
3 67 103 0
-3 -67 -103 0
4 67 117 0
-4 -67 -117 0
5 67 131 0
-5 -67 -131 0
1 68 76 0
-1 -68 -76 0
2 68 90 0
-2 -68 -90 0
3 68 104 0
-3 -68 -104 0
4 68 118 0
-4 -68 -118 0
5 68 132 0
-5 -68 -132 0
1 69 77 0
-1 -69 -77 0
2 69 91 0
-2 -69 -91 0
3 69 105 0
-3 -69 -105 0
4 69 119 0
-4 -69 -119 0
5 69 133 0
-5 -69 -133 0
1 70 78 0
-1 -70 -78 0
2 70 92 0
-2 -70 -92 0
3 70 106 0
-3 -70 -106 0
4 70 120 0
-4 -70 -120 0
5 70 134 0
-5 -70 -134 0
1 71 79 0
-1 -71 -79 0
2 71 93 0
-2 -71 -93 0
3 71 107 0
-3 -71 -107 0
4 71 121 0
-4 -71 -121 0
5 71 135 0
-5 -71 -135 0
1 72 80 0
-1 -72 -80 0
2 72 94 0
-2 -72 -94 0
3 72 108 0
-3 -72 -108 0
4 72 122 0
-4 -72 -122 0
5 72 136 0
-5 -72 -136 0
1 73 81 0
-1 -73 -81 0
2 73 95 0
-2 -73 -95 0
3 73 109 0
-3 -73 -109 0
4 73 123 0
-4 -73 -123 0
5 73 137 0
-5 -73 -137 0
1 74 82 0
-1 -74 -82 0
2 74 96 0
-2 -74 -96 0
3 74 110 0
-3 -74 -110 0
4 74 124 0
-4 -74 -124 0
5 74 138 0
-5 -74 -138 0
1 75 83 0
-1 -75 -83 0
2 75 97 0
-2 -75 -97 0
3 75 111 0
-3 -75 -111 0
4 75 125 0
-4 -75 -125 0
5 75 139 0
-5 -75 -139 0
1 76 84 0
-1 -76 -84 0
2 76 98 0
-2 -76 -98 0
3 76 112 0
-3 -76 -112 0
4 76 126 0
-4 -76 -126 0
5 76 140 0
-5 -76 -140 0
1 77 85 0
-1 -77 -85 0
2 77 99 0
-2 -77 -99 0
3 77 113 0
-3 -77 -113 0
4 77 127 0
-4 -77 -127 0
5 77 141 0
-5 -77 -141 0
1 78 86 0
-1 -78 -86 0
2 78 100 0
-2 -78 -100 0
3 78 114 0
-3 -78 -114 0
4 78 128 0
-4 -78 -128 0
5 78 142 0
-5 -78 -142 0
1 79 87 0
-1 -79 -87 0
2 79 101 0
-2 -79 -101 0
3 79 115 0
-3 -79 -115 0
4 79 129 0
-4 -79 -129 0
5 79 143 0
-5 -79 -143 0
1 80 88 0
-1 -80 -88 0
2 80 102 0
-2 -80 -102 0
3 80 116 0
-3 -80 -116 0
4 80 130 0
-4 -80 -130 0
1 81 89 0
-1 -81 -89 0
2 81 103 0
-2 -81 -103 0
3 81 117 0
-3 -81 -117 0
4 81 131 0
-4 -81 -131 0
1 82 90 0
-1 -82 -90 0
2 82 104 0
-2 -82 -104 0
3 82 118 0
-3 -82 -118 0
4 82 132 0
-4 -82 -132 0
1 83 91 0
-1 -83 -91 0
2 83 105 0
-2 -83 -105 0
3 83 119 0
-3 -83 -119 0
4 83 133 0
-4 -83 -133 0
1 84 92 0
-1 -84 -92 0
2 84 106 0
-2 -84 -106 0
3 84 120 0
-3 -84 -120 0
4 84 134 0
-4 -84 -134 0
1 85 93 0
-1 -85 -93 0
2 85 107 0
-2 -85 -107 0
3 85 121 0
-3 -85 -121 0
4 85 135 0
-4 -85 -135 0
1 86 94 0
-1 -86 -94 0
2 86 108 0
-2 -86 -108 0
3 86 122 0
-3 -86 -122 0
4 86 136 0
-4 -86 -136 0
1 87 95 0
-1 -87 -95 0
2 87 109 0
-2 -87 -109 0
3 87 123 0
-3 -87 -123 0
4 87 137 0
-4 -87 -137 0
1 88 96 0
-1 -88 -96 0
2 88 110 0
-2 -88 -110 0
3 88 124 0
-3 -88 -124 0
4 88 138 0
-4 -88 -138 0
1 89 97 0
-1 -89 -97 0
2 89 111 0
-2 -89 -111 0
3 89 125 0
-3 -89 -125 0
4 89 139 0
-4 -89 -139 0
1 90 98 0
-1 -90 -98 0
2 90 112 0
-2 -90 -112 0
3 90 126 0
-3 -90 -126 0
4 90 140 0
-4 -90 -140 0
1 91 99 0
-1 -91 -99 0
2 91 113 0
-2 -91 -113 0
3 91 127 0
-3 -91 -127 0
4 91 141 0
-4 -91 -141 0
1 92 100 0
-1 -92 -100 0
2 92 114 0
-2 -92 -114 0
3 92 128 0
-3 -92 -128 0
4 92 142 0
-4 -92 -142 0
1 93 101 0
-1 -93 -101 0
2 93 115 0
-2 -93 -115 0
3 93 129 0
-3 -93 -129 0
4 93 143 0
-4 -93 -143 0
1 94 102 0
-1 -94 -102 0
2 94 116 0
-2 -94 -116 0
3 94 130 0
-3 -94 -130 0
1 95 103 0
-1 -95 -103 0
2 95 117 0
-2 -95 -117 0
3 95 131 0
-3 -95 -131 0
1 96 104 0
-1 -96 -104 0
2 96 118 0
-2 -96 -118 0
3 96 132 0
-3 -96 -132 0
1 97 105 0
-1 -97 -105 0
2 97 119 0
-2 -97 -119 0
3 97 133 0
-3 -97 -133 0
1 98 106 0
-1 -98 -106 0
2 98 120 0
-2 -98 -120 0
3 98 134 0
-3 -98 -134 0
1 99 107 0
-1 -99 -107 0
2 99 121 0
-2 -99 -121 0
3 99 135 0
-3 -99 -135 0
1 100 108 0
-1 -100 -108 0
2 100 122 0
-2 -100 -122 0
3 100 136 0
-3 -100 -136 0
1 101 109 0
-1 -101 -109 0
2 101 123 0
-2 -101 -123 0
3 101 137 0
-3 -101 -137 0
1 102 110 0
-1 -102 -110 0
2 102 124 0
-2 -102 -124 0
3 102 138 0
-3 -102 -138 0
1 103 111 0
-1 -103 -111 0
2 103 125 0
-2 -103 -125 0
3 103 139 0
-3 -103 -139 0
1 104 112 0
-1 -104 -112 0
2 104 126 0
-2 -104 -126 0
3 104 140 0
-3 -104 -140 0
1 105 113 0
-1 -105 -113 0
2 105 127 0
-2 -105 -127 0
3 105 141 0
-3 -105 -141 0
1 106 114 0
-1 -106 -114 0
2 106 128 0
-2 -106 -128 0
3 106 142 0
-3 -106 -142 0
1 107 115 0
-1 -107 -115 0
2 107 129 0
-2 -107 -129 0
3 107 143 0
-3 -107 -143 0
1 108 116 0
-1 -108 -116 0
2 108 130 0
-2 -108 -130 0
1 109 117 0
-1 -109 -117 0
2 109 131 0
-2 -109 -131 0
1 110 118 0
-1 -110 -118 0
2 110 132 0
-2 -110 -132 0
1 111 119 0
-1 -111 -119 0
2 111 133 0
-2 -111 -133 0
1 112 120 0
-1 -112 -120 0
2 112 134 0
-2 -112 -134 0
1 113 121 0
-1 -113 -121 0
2 113 135 0
-2 -113 -135 0
1 114 122 0
-1 -114 -122 0
2 114 136 0
-2 -114 -136 0
1 115 123 0
-1 -115 -123 0
2 115 137 0
-2 -115 -137 0
1 116 124 0
-1 -116 -124 0
2 116 138 0
-2 -116 -138 0
1 117 125 0
-1 -117 -125 0
2 117 139 0
-2 -117 -139 0
1 118 126 0
-1 -118 -126 0
2 118 140 0
-2 -118 -140 0
1 119 127 0
-1 -119 -127 0
2 119 141 0
-2 -119 -141 0
1 120 128 0
-1 -120 -128 0
2 120 142 0
-2 -120 -142 0
1 121 129 0
-1 -121 -129 0
2 121 143 0
-2 -121 -143 0
1 122 130 0
-1 -122 -130 0
1 123 131 0
-1 -123 -131 0
1 124 132 0
-1 -124 -132 0
1 125 133 0
-1 -125 -133 0
1 126 134 0
-1 -126 -134 0
1 127 135 0
-1 -127 -135 0
1 128 136 0
-1 -128 -136 0
1 129 137 0
-1 -129 -137 0
1 130 138 0
-1 -130 -138 0
1 131 139 0
-1 -131 -139 0
1 132 140 0
-1 -132 -140 0
1 133 141 0
-1 -133 -141 0
1 134 142 0
-1 -134 -142 0
1 135 143 0
-1 -135 -143 0
