certificates/rado_a14_c6_N143.drat
1 -138 -143 0
-138 -139 -143 0
-10 138 -143 0
-139 -140 -141 -143 0
-5 -141 0
-140 -141 -143 0
d -139 -140 -141 -143 0
-10 140 -142 -143 0
-141 -142 -143 0
-1 -7 -143 0
-7 -143 0
d -7 -51 -143 0
141 -143 0
-1 -143 0
d -1 -7 -143 0
-143 0
1 0
-9 0
129 0
10 0
23 0
-137 0
-121 0
-18 0
-2 0
-135 0
-31 0
-8 0
-15 0
17 0
0
